NAME : X_18_seed_123_id_17
TYPE : CVRP
DIMENSION : 181
EDGE_WEIGHT_TYPE : EUC_2D
CAPACITY : 8
NODE_COORD_SECTION
1	815	163
2	291	715
3	792	467
4	969	761
5	985	870
6	764	489
7	279	921
8	947	800
9	942	828
10	287	652
11	221	932
12	267	844
13	317	870
14	349	649
15	790	686
16	772	446
17	788	432
18	323	710
19	228	712
20	231	602
21	698	398
22	957	776
23	204	848
24	192	983
25	799	682
26	736	454
27	352	958
28	954	713
29	340	578
30	796	492
31	997	732
32	377	742
33	243	624
34	261	862
35	942	679
36	822	534
37	796	469
38	743	502
39	863	280
40	279	775
41	236	760
42	993	836
43	774	499
44	1000	845
45	282	935
46	947	724
47	204	882
48	277	896
49	933	704
50	387	689
51	921	830
52	986	744
53	297	852
54	995	718
55	953	858
56	946	843
57	324	849
58	914	812
59	925	633
60	995	862
61	105	771
62	271	915
63	924	449
64	992	920
65	774	606
66	295	559
67	945	603
68	250	668
69	901	756
70	275	756
71	352	702
72	965	769
73	334	918
74	222	743
75	730	506
76	343	959
77	817	514
78	803	441
79	280	963
80	772	459
81	277	701
82	780	827
83	970	753
84	237	930
85	964	767
86	790	454
87	280	724
88	321	927
89	720	417
90	317	705
91	295	675
92	319	733
93	872	544
94	773	325
95	922	788
96	982	820
97	272	947
98	267	692
99	232	980
100	997	898
101	931	738
102	275	953
103	331	659
104	316	805
105	635	542
106	698	461
107	379	745
108	807	455
109	776	564
110	325	761
111	904	361
112	313	704
113	683	466
114	988	432
115	308	881
116	575	366
117	256	724
118	332	886
119	227	780
120	950	652
121	948	735
122	971	757
123	761	420
124	254	762
125	792	490
126	775	517
127	386	615
128	210	895
129	331	734
130	924	774
131	350	863
132	266	969
133	322	999
134	875	770
135	850	573
136	921	785
137	922	792
138	321	630
139	997	770
140	563	398
141	298	837
142	914	776
143	937	690
144	882	810
145	988	887
146	406	755
147	935	883
148	392	717
149	902	781
150	928	637
151	771	496
152	75	607
153	924	878
154	985	902
155	315	940
156	991	879
157	255	653
158	299	958
159	908	608
160	797	464
161	977	892
162	897	686
163	390	879
164	939	771
165	918	780
166	745	489
167	236	946
168	770	455
169	941	796
170	683	350
171	194	633
172	342	753
173	840	892
174	374	606
175	321	727
176	379	755
177	797	488
178	782	407
179	791	583
180	823	423
181	747	469
DEMAND_SECTION
1	0
2	1
3	1
4	1
5	1
6	1
7	1
8	1
9	1
10	1
11	1
12	1
13	1
14	1
15	1
16	1
17	1
18	1
19	1
20	1
21	1
22	1
23	1
24	1
25	1
26	1
27	1
28	1
29	1
30	1
31	1
32	1
33	1
34	1
35	1
36	1
37	1
38	1
39	1
40	1
41	1
42	1
43	1
44	1
45	1
46	1
47	1
48	1
49	1
50	1
51	1
52	1
53	1
54	1
55	1
56	1
57	1
58	1
59	1
60	1
61	1
62	1
63	1
64	1
65	1
66	1
67	1
68	1
69	1
70	1
71	1
72	1
73	1
74	1
75	1
76	1
77	1
78	1
79	1
80	1
81	1
82	1
83	1
84	1
85	1
86	1
87	1
88	1
89	1
90	1
91	1
92	1
93	1
94	1
95	1
96	1
97	1
98	1
99	1
100	1
101	1
102	1
103	1
104	1
105	1
106	1
107	1
108	1
109	1
110	1
111	1
112	1
113	1
114	1
115	1
116	1
117	1
118	1
119	1
120	1
121	1
122	1
123	1
124	1
125	1
126	1
127	1
128	1
129	1
130	1
131	1
132	1
133	1
134	1
135	1
136	1
137	1
138	1
139	1
140	1
141	1
142	1
143	1
144	1
145	1
146	1
147	1
148	1
149	1
150	1
151	1
152	1
153	1
154	1
155	1
156	1
157	1
158	1
159	1
160	1
161	1
162	1
163	1
164	1
165	1
166	1
167	1
168	1
169	1
170	1
171	1
172	1
173	1
174	1
175	1
176	1
177	1
178	1
179	1
180	1
181	1
DEPOT_SECTION
1
-1
EOF
